g3 0 1 0	# problem cresc50
 6 100 1 0 0	# vars, constraints, objectives, ranges, eqns
 100 1	# nonlinear constraints, objectives
 0 0	# network constraints: nonlinear, linear
 6 3 3	# nonlinear vars in constraints, objectives, both
 0 0 0 1	# linear network variables; functions; arith, flags
 0 0 0 0 0	# discrete variables: binary, integer, nonlinear (b,c,o)
 550 3	# nonzeros in Jacobian, gradients
 9 2	# max name lengths: constraints, variables
 0 0 0 0 0	# common exprs: b,c,o,c1,o1
C0
o54
3
o5
o1
o0
v3
o2
o2
v1
v0
o46
v5
n0.514
n2
o5
o1
o0
v4
o2
o2
v1
v0
o41
v5
n0.176
n2
o16
o5
o0
v0
v2
n2
C1
o54
3
o5
o1
o0
v3
o2
o2
v1
v0
o46
v5
n0.948
n2
o5
o1
o0
v4
o2
o2
v1
v0
o41
v5
n0.172
n2
o16
o5
o0
v0
v2
n2
C2
o54
3
o5
o1
o0
v3
o2
o2
v1
v0
o46
v5
n0.702
n2
o5
o1
o0
v4
o2
o2
v1
v0
o41
v5
n0.226
n2
o16
o5
o0
v0
v2
n2
C3
o54
3
o5
o1
o0
v3
o2
o2
v1
v0
o46
v5
n0.495
n2
o5
o1
o0
v4
o2
o2
v1
v0
o41
v5
n0.125
n2
o16
o5
o0
v0
v2
n2
C4
o54
3
o5
o1
o0
v3
o2
o2
v1
v0
o46
v5
n0.823
n2
o5
o1
o0
v4
o2
o2
v1
v0
o41
v5
n0.152
n2
o16
o5
o0
v0
v2
n2
C5
o54
3
o5
o1
o0
v3
o2
o2
v1
v0
o46
v5
n0.625
n2
o5
o1
o0
v4
o2
o2
v1
v0
o41
v5
n0.315
n2
o16
o5
o0
v0
v2
n2
C6
o54
3
o5
o1
o0
v3
o2
o2
v1
v0
o46
v5
n0.347
n2
o5
o1
o0
v4
o2
o2
v1
v0
o41
v5
n0.917
n2
o16
o5
o0
v0
v2
n2
C7
o54
3
o5
o1
o0
v3
o2
o2
v1
v0
o46
v5
n0.52
n2
o5
o1
o0
v4
o2
o2
v1
v0
o41
v5
n0.401
n2
o16
o5
o0
v0
v2
n2
C8
o54
3
o5
o1
o0
v3
o2
o2
v1
v0
o46
v5
n0.607
n2
o5
o1
o0
v4
o2
o2
v1
v0
o41
v5
n0.785
n2
o16
o5
o0
v0
v2
n2
C9
o54
3
o5
o1
o0
v3
o2
o2
v1
v0
o46
v5
n0.758
n2
o5
o1
o0
v4
o2
o2
v1
v0
o41
v5
n0.582
n2
o16
o5
o0
v0
v2
n2
C10
o54
3
o5
o1
o0
v3
o2
o2
v1
v0
o46
v5
n0.2
n2
o5
o1
o0
v4
o2
o2
v1
v0
o41
v5
n0.827
n2
o16
o5
o0
v0
v2
n2
C11
o54
3
o5
o1
o0
v3
o2
o2
v1
v0
o46
v5
n0.416
n2
o5
o1
o0
v4
o2
o2
v1
v0
o41
v5
n0.464
n2
o16
o5
o0
v0
v2
n2
C12
o54
3
o5
o1
o0
v3
o2
o2
v1
v0
o46
v5
n0.979
n2
o5
o1
o0
v4
o2
o2
v1
v0
o41
v5
n0.126
n2
o16
o5
o0
v0
v2
n2
C13
o54
3
o5
o1
o0
v3
o2
o2
v1
v0
o46
v5
n0.213
n2
o5
o1
o0
v4
o2
o2
v1
v0
o41
v5
n0.958
n2
o16
o5
o0
v0
v2
n2
C14
o54
3
o5
o1
o0
v3
o2
o2
v1
v0
o46
v5
n0.737
n2
o5
o1
o0
v4
o2
o2
v1
v0
o41
v5
n0.409
n2
o16
o5
o0
v0
v2
n2
C15
o54
3
o5
o1
o0
v3
o2
o2
v1
v0
o46
v5
n0.957
n2
o5
o1
o0
v4
o2
o2
v1
v0
o41
v5
n0.028
n2
o16
o5
o0
v0
v2
n2
C16
o54
3
o5
o1
o0
v3
o2
o2
v1
v0
o46
v5
n0.319
n2
o5
o1
o0
v4
o2
o2
v1
v0
o41
v5
n0.757
n2
o16
o5
o0
v0
v2
n2
C17
o54
3
o5
o1
o0
v3
o2
o2
v1
v0
o46
v5
n0.572
n2
o5
o1
o0
v4
o2
o2
v1
v0
o41
v5
n0.119
n2
o16
o5
o0
v0
v2
n2
C18
o54
3
o5
o1
o0
v3
o2
o2
v1
v0
o46
v5
n0.57
n2
o5
o1
o0
v4
o2
o2
v1
v0
o41
v5
n0.252
n2
o16
o5
o0
v0
v2
n2
C19
o54
3
o5
o1
o0
v3
o2
o2
v1
v0
o46
v5
n0.496
n2
o5
o1
o0
v4
o2
o2
v1
v0
o41
v5
n0.237
n2
o16
o5
o0
v0
v2
n2
C20
o54
3
o5
o1
o0
v3
o2
o2
v1
v0
o46
v5
n0.477
n2
o5
o1
o0
v4
o2
o2
v1
v0
o41
v5
n0.406
n2
o16
o5
o0
v0
v2
n2
C21
o54
3
o5
o1
o0
v3
o2
o2
v1
v0
o46
v5
n0.873
n2
o5
o1
o0
v4
o2
o2
v1
v0
o41
v5
n0.427
n2
o16
o5
o0
v0
v2
n2
C22
o54
3
o5
o1
o0
v3
o2
o2
v1
v0
o46
v5
n0.522
n2
o5
o1
o0
v4
o2
o2
v1
v0
o41
v5
n0.697
n2
o16
o5
o0
v0
v2
n2
C23
o54
3
o5
o1
o0
v3
o2
o2
v1
v0
o46
v5
n0.773
n2
o5
o1
o0
v4
o2
o2
v1
v0
o41
v5
n0.245
n2
o16
o5
o0
v0
v2
n2
C24
o54
3
o5
o1
o0
v3
o2
o2
v1
v0
o46
v5
n0.887
n2
o5
o1
o0
v4
o2
o2
v1
v0
o41
v5
n0.037
n2
o16
o5
o0
v0
v2
n2
C25
o54
3
o5
o1
o0
v3
o2
o2
v1
v0
o46
v5
n0.651
n2
o5
o1
o0
v4
o2
o2
v1
v0
o41
v5
n0.399
n2
o16
o5
o0
v0
v2
n2
C26
o54
3
o5
o1
o0
v3
o2
o2
v1
v0
o46
v5
n0.676
n2
o5
o1
o0
v4
o2
o2
v1
v0
o41
v5
n0.733
n2
o16
o5
o0
v0
v2
n2
C27
o54
3
o5
o1
o0
v3
o2
o2
v1
v0
o46
v5
n0.938
n2
o5
o1
o0
v4
o2
o2
v1
v0
o41
v5
n0.233
n2
o16
o5
o0
v0
v2
n2
C28
o54
3
o5
o1
o0
v3
o2
o2
v1
v0
o46
v5
n0.779
n2
o5
o1
o0
v4
o2
o2
v1
v0
o41
v5
n0.431
n2
o16
o5
o0
v0
v2
n2
C29
o54
3
o5
o1
o0
v3
o2
o2
v1
v0
o46
v5
n0.75
n2
o5
o1
o0
v4
o2
o2
v1
v0
o41
v5
n0.208
n2
o16
o5
o0
v0
v2
n2
C30
o54
3
o5
o1
o0
v3
o2
o2
v1
v0
o46
v5
n0.803
n2
o5
o1
o0
v4
o2
o2
v1
v0
o41
v5
n0.219
n2
o16
o5
o0
v0
v2
n2
C31
o54
3
o5
o1
o0
v3
o2
o2
v1
v0
o46
v5
n0.563
n2
o5
o1
o0
v4
o2
o2
v1
v0
o41
v5
n0.716
n2
o16
o5
o0
v0
v2
n2
C32
o54
3
o5
o1
o0
v3
o2
o2
v1
v0
o46
v5
n0.653
n2
o5
o1
o0
v4
o2
o2
v1
v0
o41
v5
n0.604
n2
o16
o5
o0
v0
v2
n2
C33
o54
3
o5
o1
o0
v3
o2
o2
v1
v0
o46
v5
n0.79
n2
o5
o1
o0
v4
o2
o2
v1
v0
o41
v5
n0.079
n2
o16
o5
o0
v0
v2
n2
C34
o54
3
o5
o1
o0
v3
o2
o2
v1
v0
o46
v5
n0.246
n2
o5
o1
o0
v4
o2
o2
v1
v0
o41
v5
n0.945
n2
o16
o5
o0
v0
v2
n2
C35
o54
3
o5
o1
o0
v3
o2
o2
v1
v0
o46
v5
n0.477
n2
o5
o1
o0
v4
o2
o2
v1
v0
o41
v5
n0.8
n2
o16
o5
o0
v0
v2
n2
C36
o54
3
o5
o1
o0
v3
o2
o2
v1
v0
o46
v5
n0.744
n2
o5
o1
o0
v4
o2
o2
v1
v0
o41
v5
n0.381
n2
o16
o5
o0
v0
v2
n2
C37
o54
3
o5
o1
o0
v3
o2
o2
v1
v0
o46
v5
n0.48
n2
o5
o1
o0
v4
o2
o2
v1
v0
o41
v5
n0.527
n2
o16
o5
o0
v0
v2
n2
C38
o54
3
o5
o1
o0
v3
o2
o2
v1
v0
o46
v5
n0.446
n2
o5
o1
o0
v4
o2
o2
v1
v0
o41
v5
n0.705
n2
o16
o5
o0
v0
v2
n2
C39
o54
3
o5
o1
o0
v3
o2
o2
v1
v0
o46
v5
n0.095
n2
o5
o1
o0
v4
o2
o2
v1
v0
o41
v5
n0.963
n2
o16
o5
o0
v0
v2
n2
C40
o54
3
o5
o1
o0
v3
o2
o2
v1
v0
o46
v5
n0.551
n2
o5
o1
o0
v4
o2
o2
v1
v0
o41
v5
n0.74
n2
o16
o5
o0
v0
v2
n2
C41
o54
3
o5
o1
o0
v3
o2
o2
v1
v0
o46
v5
n0.579
n2
o5
o1
o0
v4
o2
o2
v1
v0
o41
v5
n0.638
n2
o16
o5
o0
v0
v2
n2
C42
o54
3
o5
o1
o0
v3
o2
o2
v1
v0
o46
v5
n0.782
n2
o5
o1
o0
v4
o2
o2
v1
v0
o41
v5
n0.188
n2
o16
o5
o0
v0
v2
n2
C43
o54
3
o5
o1
o0
v3
o2
o2
v1
v0
o46
v5
n0.684
n2
o5
o1
o0
v4
o2
o2
v1
v0
o41
v5
n0.293
n2
o16
o5
o0
v0
v2
n2
C44
o54
3
o5
o1
o0
v3
o2
o2
v1
v0
o46
v5
n0.565
n2
o5
o1
o0
v4
o2
o2
v1
v0
o41
v5
n0.418
n2
o16
o5
o0
v0
v2
n2
C45
o54
3
o5
o1
o0
v3
o2
o2
v1
v0
o46
v5
n0.566
n2
o5
o1
o0
v4
o2
o2
v1
v0
o41
v5
n0.488
n2
o16
o5
o0
v0
v2
n2
C46
o54
3
o5
o1
o0
v3
o2
o2
v1
v0
o46
v5
n0.607
n2
o5
o1
o0
v4
o2
o2
v1
v0
o41
v5
n0.416
n2
o16
o5
o0
v0
v2
n2
C47
o54
3
o5
o1
o0
v3
o2
o2
v1
v0
o46
v5
n0.036
n2
o5
o1
o0
v4
o2
o2
v1
v0
o41
v5
n0.977
n2
o16
o5
o0
v0
v2
n2
C48
o54
3
o5
o1
o0
v3
o2
o2
v1
v0
o46
v5
n0.647
n2
o5
o1
o0
v4
o2
o2
v1
v0
o41
v5
n0.35
n2
o16
o5
o0
v0
v2
n2
C49
o54
3
o5
o1
o0
v3
o2
o2
v1
v0
o46
v5
n0.553
n2
o5
o1
o0
v4
o2
o2
v1
v0
o41
v5
n0.358
n2
o16
o5
o0
v0
v2
n2
C50
o54
3
o5
o1
v3
n0.514
n2
o5
o1
v4
n0.176
n2
o16
o5
o0
o2
v1
v0
v2
n2
C51
o54
3
o5
o1
v3
n0.948
n2
o5
o1
v4
n0.172
n2
o16
o5
o0
o2
v1
v0
v2
n2
C52
o54
3
o5
o1
v3
n0.702
n2
o5
o1
v4
n0.226
n2
o16
o5
o0
o2
v1
v0
v2
n2
C53
o54
3
o5
o1
v3
n0.495
n2
o5
o1
v4
n0.125
n2
o16
o5
o0
o2
v1
v0
v2
n2
C54
o54
3
o5
o1
v3
n0.823
n2
o5
o1
v4
n0.152
n2
o16
o5
o0
o2
v1
v0
v2
n2
C55
o54
3
o5
o1
v3
n0.625
n2
o5
o1
v4
n0.315
n2
o16
o5
o0
o2
v1
v0
v2
n2
C56
o54
3
o5
o1
v3
n0.347
n2
o5
o1
v4
n0.917
n2
o16
o5
o0
o2
v1
v0
v2
n2
C57
o54
3
o5
o1
v3
n0.52
n2
o5
o1
v4
n0.401
n2
o16
o5
o0
o2
v1
v0
v2
n2
C58
o54
3
o5
o1
v3
n0.607
n2
o5
o1
v4
n0.785
n2
o16
o5
o0
o2
v1
v0
v2
n2
C59
o54
3
o5
o1
v3
n0.758
n2
o5
o1
v4
n0.582
n2
o16
o5
o0
o2
v1
v0
v2
n2
C60
o54
3
o5
o1
v3
n0.2
n2
o5
o1
v4
n0.827
n2
o16
o5
o0
o2
v1
v0
v2
n2
C61
o54
3
o5
o1
v3
n0.416
n2
o5
o1
v4
n0.464
n2
o16
o5
o0
o2
v1
v0
v2
n2
C62
o54
3
o5
o1
v3
n0.979
n2
o5
o1
v4
n0.126
n2
o16
o5
o0
o2
v1
v0
v2
n2
C63
o54
3
o5
o1
v3
n0.213
n2
o5
o1
v4
n0.958
n2
o16
o5
o0
o2
v1
v0
v2
n2
C64
o54
3
o5
o1
v3
n0.737
n2
o5
o1
v4
n0.409
n2
o16
o5
o0
o2
v1
v0
v2
n2
C65
o54
3
o5
o1
v3
n0.957
n2
o5
o1
v4
n0.028
n2
o16
o5
o0
o2
v1
v0
v2
n2
C66
o54
3
o5
o1
v3
n0.319
n2
o5
o1
v4
n0.757
n2
o16
o5
o0
o2
v1
v0
v2
n2
C67
o54
3
o5
o1
v3
n0.572
n2
o5
o1
v4
n0.119
n2
o16
o5
o0
o2
v1
v0
v2
n2
C68
o54
3
o5
o1
v3
n0.57
n2
o5
o1
v4
n0.252
n2
o16
o5
o0
o2
v1
v0
v2
n2
C69
o54
3
o5
o1
v3
n0.496
n2
o5
o1
v4
n0.237
n2
o16
o5
o0
o2
v1
v0
v2
n2
C70
o54
3
o5
o1
v3
n0.477
n2
o5
o1
v4
n0.406
n2
o16
o5
o0
o2
v1
v0
v2
n2
C71
o54
3
o5
o1
v3
n0.873
n2
o5
o1
v4
n0.427
n2
o16
o5
o0
o2
v1
v0
v2
n2
C72
o54
3
o5
o1
v3
n0.522
n2
o5
o1
v4
n0.697
n2
o16
o5
o0
o2
v1
v0
v2
n2
C73
o54
3
o5
o1
v3
n0.773
n2
o5
o1
v4
n0.245
n2
o16
o5
o0
o2
v1
v0
v2
n2
C74
o54
3
o5
o1
v3
n0.887
n2
o5
o1
v4
n0.037
n2
o16
o5
o0
o2
v1
v0
v2
n2
C75
o54
3
o5
o1
v3
n0.651
n2
o5
o1
v4
n0.399
n2
o16
o5
o0
o2
v1
v0
v2
n2
C76
o54
3
o5
o1
v3
n0.676
n2
o5
o1
v4
n0.733
n2
o16
o5
o0
o2
v1
v0
v2
n2
C77
o54
3
o5
o1
v3
n0.938
n2
o5
o1
v4
n0.233
n2
o16
o5
o0
o2
v1
v0
v2
n2
C78
o54
3
o5
o1
v3
n0.779
n2
o5
o1
v4
n0.431
n2
o16
o5
o0
o2
v1
v0
v2
n2
C79
o54
3
o5
o1
v3
n0.75
n2
o5
o1
v4
n0.208
n2
o16
o5
o0
o2
v1
v0
v2
n2
C80
o54
3
o5
o1
v3
n0.803
n2
o5
o1
v4
n0.219
n2
o16
o5
o0
o2
v1
v0
v2
n2
C81
o54
3
o5
o1
v3
n0.563
n2
o5
o1
v4
n0.716
n2
o16
o5
o0
o2
v1
v0
v2
n2
C82
o54
3
o5
o1
v3
n0.653
n2
o5
o1
v4
n0.604
n2
o16
o5
o0
o2
v1
v0
v2
n2
C83
o54
3
o5
o1
v3
n0.79
n2
o5
o1
v4
n0.079
n2
o16
o5
o0
o2
v1
v0
v2
n2
C84
o54
3
o5
o1
v3
n0.246
n2
o5
o1
v4
n0.945
n2
o16
o5
o0
o2
v1
v0
v2
n2
C85
o54
3
o5
o1
v3
n0.477
n2
o5
o1
v4
n0.8
n2
o16
o5
o0
o2
v1
v0
v2
n2
C86
o54
3
o5
o1
v3
n0.744
n2
o5
o1
v4
n0.381
n2
o16
o5
o0
o2
v1
v0
v2
n2
C87
o54
3
o5
o1
v3
n0.48
n2
o5
o1
v4
n0.527
n2
o16
o5
o0
o2
v1
v0
v2
n2
C88
o54
3
o5
o1
v3
n0.446
n2
o5
o1
v4
n0.705
n2
o16
o5
o0
o2
v1
v0
v2
n2
C89
o54
3
o5
o1
v3
n0.095
n2
o5
o1
v4
n0.963
n2
o16
o5
o0
o2
v1
v0
v2
n2
C90
o54
3
o5
o1
v3
n0.551
n2
o5
o1
v4
n0.74
n2
o16
o5
o0
o2
v1
v0
v2
n2
C91
o54
3
o5
o1
v3
n0.579
n2
o5
o1
v4
n0.638
n2
o16
o5
o0
o2
v1
v0
v2
n2
C92
o54
3
o5
o1
v3
n0.782
n2
o5
o1
v4
n0.188
n2
o16
o5
o0
o2
v1
v0
v2
n2
C93
o54
3
o5
o1
v3
n0.684
n2
o5
o1
v4
n0.293
n2
o16
o5
o0
o2
v1
v0
v2
n2
C94
o54
3
o5
o1
v3
n0.565
n2
o5
o1
v4
n0.418
n2
o16
o5
o0
o2
v1
v0
v2
n2
C95
o54
3
o5
o1
v3
n0.566
n2
o5
o1
v4
n0.488
n2
o16
o5
o0
o2
v1
v0
v2
n2
C96
o54
3
o5
o1
v3
n0.607
n2
o5
o1
v4
n0.416
n2
o16
o5
o0
o2
v1
v0
v2
n2
C97
o54
3
o5
o1
v3
n0.036
n2
o5
o1
v4
n0.977
n2
o16
o5
o0
o2
v1
v0
v2
n2
C98
o54
3
o5
o1
v3
n0.647
n2
o5
o1
v4
n0.35
n2
o16
o5
o0
o2
v1
v0
v2
n2
C99
o54
3
o5
o1
v3
n0.553
n2
o5
o1
v4
n0.358
n2
o16
o5
o0
o2
v1
v0
v2
n2
O0 0
o54
3
o2
o5
o0
v0
v2
n2
o53
o16
o3
o0
o1
o5
o2
v1
v0
n2
o5
o0
o2
v1
v0
v2
n2
o5
o0
v0
v2
n2
o2
o2
o2
n2
o0
v0
v2
v1
v0
o16
o2
o5
o0
o2
v1
v0
v2
n2
o53
o3
o1
o0
o5
o2
v1
v0
n2
o5
o0
o2
v1
v0
v2
n2
o5
o0
v0
v2
n2
o2
o2
o2
n2
o0
o2
v1
v0
v2
v1
v0
o2
o2
o2
o0
v0
v2
v1
v0
o41
o53
o16
o3
o0
o1
o5
o2
v1
v0
n2
o5
o0
o2
v1
v0
v2
n2
o5
o0
v0
v2
n2
o2
o2
o2
n2
o0
v0
v2
v1
v0
x6
0 1
1 2
2 0.75
3 -40
4 5
5 1.5
r
1 0
1 0
1 0
1 0
1 0
1 0
1 0
1 0
1 0
1 0
1 0
1 0
1 0
1 0
1 0
1 0
1 0
1 0
1 0
1 0
1 0
1 0
1 0
1 0
1 0
1 0
1 0
1 0
1 0
1 0
1 0
1 0
1 0
1 0
1 0
1 0
1 0
1 0
1 0
1 0
1 0
1 0
1 0
1 0
1 0
1 0
1 0
1 0
1 0
1 0
2 0
2 0
2 0
2 0
2 0
2 0
2 0
2 0
2 0
2 0
2 0
2 0
2 0
2 0
2 0
2 0
2 0
2 0
2 0
2 0
2 0
2 0
2 0
2 0
2 0
2 0
2 0
2 0
2 0
2 0
2 0
2 0
2 0
2 0
2 0
2 0
2 0
2 0
2 0
2 0
2 0
2 0
2 0
2 0
2 0
2 0
2 0
2 0
2 0
2 0
b
2 1e-08
2 1
2 0.39
3
3
0 0 6.2831852
k5
100
200
300
400
500
J0 6
0 0
1 0
2 0
3 0
4 0
5 0
J1 6
0 0
1 0
2 0
3 0
4 0
5 0
J2 6
0 0
1 0
2 0
3 0
4 0
5 0
J3 6
0 0
1 0
2 0
3 0
4 0
5 0
J4 6
0 0
1 0
2 0
3 0
4 0
5 0
J5 6
0 0
1 0
2 0
3 0
4 0
5 0
J6 6
0 0
1 0
2 0
3 0
4 0
5 0
J7 6
0 0
1 0
2 0
3 0
4 0
5 0
J8 6
0 0
1 0
2 0
3 0
4 0
5 0
J9 6
0 0
1 0
2 0
3 0
4 0
5 0
J10 6
0 0
1 0
2 0
3 0
4 0
5 0
J11 6
0 0
1 0
2 0
3 0
4 0
5 0
J12 6
0 0
1 0
2 0
3 0
4 0
5 0
J13 6
0 0
1 0
2 0
3 0
4 0
5 0
J14 6
0 0
1 0
2 0
3 0
4 0
5 0
J15 6
0 0
1 0
2 0
3 0
4 0
5 0
J16 6
0 0
1 0
2 0
3 0
4 0
5 0
J17 6
0 0
1 0
2 0
3 0
4 0
5 0
J18 6
0 0
1 0
2 0
3 0
4 0
5 0
J19 6
0 0
1 0
2 0
3 0
4 0
5 0
J20 6
0 0
1 0
2 0
3 0
4 0
5 0
J21 6
0 0
1 0
2 0
3 0
4 0
5 0
J22 6
0 0
1 0
2 0
3 0
4 0
5 0
J23 6
0 0
1 0
2 0
3 0
4 0
5 0
J24 6
0 0
1 0
2 0
3 0
4 0
5 0
J25 6
0 0
1 0
2 0
3 0
4 0
5 0
J26 6
0 0
1 0
2 0
3 0
4 0
5 0
J27 6
0 0
1 0
2 0
3 0
4 0
5 0
J28 6
0 0
1 0
2 0
3 0
4 0
5 0
J29 6
0 0
1 0
2 0
3 0
4 0
5 0
J30 6
0 0
1 0
2 0
3 0
4 0
5 0
J31 6
0 0
1 0
2 0
3 0
4 0
5 0
J32 6
0 0
1 0
2 0
3 0
4 0
5 0
J33 6
0 0
1 0
2 0
3 0
4 0
5 0
J34 6
0 0
1 0
2 0
3 0
4 0
5 0
J35 6
0 0
1 0
2 0
3 0
4 0
5 0
J36 6
0 0
1 0
2 0
3 0
4 0
5 0
J37 6
0 0
1 0
2 0
3 0
4 0
5 0
J38 6
0 0
1 0
2 0
3 0
4 0
5 0
J39 6
0 0
1 0
2 0
3 0
4 0
5 0
J40 6
0 0
1 0
2 0
3 0
4 0
5 0
J41 6
0 0
1 0
2 0
3 0
4 0
5 0
J42 6
0 0
1 0
2 0
3 0
4 0
5 0
J43 6
0 0
1 0
2 0
3 0
4 0
5 0
J44 6
0 0
1 0
2 0
3 0
4 0
5 0
J45 6
0 0
1 0
2 0
3 0
4 0
5 0
J46 6
0 0
1 0
2 0
3 0
4 0
5 0
J47 6
0 0
1 0
2 0
3 0
4 0
5 0
J48 6
0 0
1 0
2 0
3 0
4 0
5 0
J49 6
0 0
1 0
2 0
3 0
4 0
5 0
J50 5
0 0
1 0
2 0
3 0
4 0
J51 5
0 0
1 0
2 0
3 0
4 0
J52 5
0 0
1 0
2 0
3 0
4 0
J53 5
0 0
1 0
2 0
3 0
4 0
J54 5
0 0
1 0
2 0
3 0
4 0
J55 5
0 0
1 0
2 0
3 0
4 0
J56 5
0 0
1 0
2 0
3 0
4 0
J57 5
0 0
1 0
2 0
3 0
4 0
J58 5
0 0
1 0
2 0
3 0
4 0
J59 5
0 0
1 0
2 0
3 0
4 0
J60 5
0 0
1 0
2 0
3 0
4 0
J61 5
0 0
1 0
2 0
3 0
4 0
J62 5
0 0
1 0
2 0
3 0
4 0
J63 5
0 0
1 0
2 0
3 0
4 0
J64 5
0 0
1 0
2 0
3 0
4 0
J65 5
0 0
1 0
2 0
3 0
4 0
J66 5
0 0
1 0
2 0
3 0
4 0
J67 5
0 0
1 0
2 0
3 0
4 0
J68 5
0 0
1 0
2 0
3 0
4 0
J69 5
0 0
1 0
2 0
3 0
4 0
J70 5
0 0
1 0
2 0
3 0
4 0
J71 5
0 0
1 0
2 0
3 0
4 0
J72 5
0 0
1 0
2 0
3 0
4 0
J73 5
0 0
1 0
2 0
3 0
4 0
J74 5
0 0
1 0
2 0
3 0
4 0
J75 5
0 0
1 0
2 0
3 0
4 0
J76 5
0 0
1 0
2 0
3 0
4 0
J77 5
0 0
1 0
2 0
3 0
4 0
J78 5
0 0
1 0
2 0
3 0
4 0
J79 5
0 0
1 0
2 0
3 0
4 0
J80 5
0 0
1 0
2 0
3 0
4 0
J81 5
0 0
1 0
2 0
3 0
4 0
J82 5
0 0
1 0
2 0
3 0
4 0
J83 5
0 0
1 0
2 0
3 0
4 0
J84 5
0 0
1 0
2 0
3 0
4 0
J85 5
0 0
1 0
2 0
3 0
4 0
J86 5
0 0
1 0
2 0
3 0
4 0
J87 5
0 0
1 0
2 0
3 0
4 0
J88 5
0 0
1 0
2 0
3 0
4 0
J89 5
0 0
1 0
2 0
3 0
4 0
J90 5
0 0
1 0
2 0
3 0
4 0
J91 5
0 0
1 0
2 0
3 0
4 0
J92 5
0 0
1 0
2 0
3 0
4 0
J93 5
0 0
1 0
2 0
3 0
4 0
J94 5
0 0
1 0
2 0
3 0
4 0
J95 5
0 0
1 0
2 0
3 0
4 0
J96 5
0 0
1 0
2 0
3 0
4 0
J97 5
0 0
1 0
2 0
3 0
4 0
J98 5
0 0
1 0
2 0
3 0
4 0
J99 5
0 0
1 0
2 0
3 0
4 0
G0 3
0 0
1 0
2 0
